NAME = SAfile175,
TOURSIZE = 175,
LENGTH = 21429,
143,130,63,145,96,52,138,115,43,20,109,4,174,162,78,34,33,18,122,77,10,66,128,59,11,173,24,149,70,153,140,99,132,36,21,41,134,91,71,81,112,151,104,85,84,13,73,101,127,108,75,7,74,113,38,37,161,136,97,44,47,82,157,32,172,80,144,102,123,167,103,50,105,159,64,53,170,92,48,114,31,69,93,19,120,39,5,26,72,118,49,148,89,46,119,171,62,15,116,133,29,68,87,154,166,45,9,25,139,110,17,137,2,83,58,160,6,42,16,146,35,117,163,67,98,156,79,61,40,131,1,27,126,164,165,22,121,12,107,51,106,55,129,125,8,155,57,14,150,147,169,28,168,23,65,100,124,175,60,142,3,30,56,86,76,111,88,90,158,94,135,152,141,54,95